c Mesh Graph
c 25 Rows, 25 columns, capacities in range [0, 50]
p max 627 1850
n 1 s
n 627 t
a 1 26 150
a 1 25 150
a 1 24 150
a 1 23 150
a 1 22 150
a 1 21 150
a 1 20 150
a 1 19 150
a 1 18 150
a 1 17 150
a 1 16 150
a 1 15 150
a 1 14 150
a 1 13 150
a 1 12 150
a 1 11 150
a 1 10 150
a 1 9 150
a 1 8 150
a 1 7 150
a 1 6 150
a 1 5 150
a 1 4 150
a 1 3 150
a 1 2 150
a 2 28 30
a 2 27 38
a 2 51 11
a 3 29 31
a 3 28 29
a 3 27 46
a 4 30 28
a 4 29 18
a 4 28 24
a 5 31 12
a 5 30 47
a 5 29 17
a 6 32 14
a 6 31 27
a 6 30 30
a 7 33 18
a 7 32 17
a 7 31 35
a 8 34 23
a 8 33 6
a 8 32 38
a 9 35 13
a 9 34 41
a 9 33 12
a 10 36 8
a 10 35 16
a 10 34 15
a 11 37 43
a 11 36 18
a 11 35 39
a 12 38 31
a 12 37 28
a 12 36 47
a 13 39 11
a 13 38 26
a 13 37 28
a 14 40 28
a 14 39 1
a 14 38 8
a 15 41 26
a 15 40 19
a 15 39 37
a 16 42 3
a 16 41 48
a 16 40 1
a 17 43 19
a 17 42 34
a 17 41 14
a 18 44 26
a 18 43 23
a 18 42 33
a 19 45 16
a 19 44 34
a 19 43 7
a 20 46 33
a 20 45 49
a 20 44 20
a 21 47 2
a 21 46 39
a 21 45 29
a 22 48 32
a 22 47 35
a 22 46 22
a 23 49 7
a 23 48 14
a 23 47 4
a 24 50 9
a 24 49 24
a 24 48 14
a 25 51 27
a 25 50 10
a 25 49 43
a 26 27 24
a 26 51 10
a 26 50 18
a 27 53 7
a 27 52 25
a 27 76 20
a 28 54 31
a 28 53 8
a 28 52 40
a 29 55 15
a 29 54 14
a 29 53 15
a 30 56 13
a 30 55 35
a 30 54 32
a 31 57 1
a 31 56 14
a 31 55 14
a 32 58 38
a 32 57 37
a 32 56 16
a 33 59 1
a 33 58 40
a 33 57 47
a 34 60 24
a 34 59 3
a 34 58 5
a 35 61 36
a 35 60 47
a 35 59 13
a 36 62 47
a 36 61 14
a 36 60 41
a 37 63 22
a 37 62 34
a 37 61 14
a 38 64 31
a 38 63 23
a 38 62 22
a 39 65 46
a 39 64 40
a 39 63 2
a 40 66 31
a 40 65 21
a 40 64 18
a 41 67 46
a 41 66 37
a 41 65 30
a 42 68 32
a 42 67 4
a 42 66 33
a 43 69 23
a 43 68 2
a 43 67 22
a 44 70 27
a 44 69 6
a 44 68 24
a 45 71 23
a 45 70 20
a 45 69 50
a 46 72 36
a 46 71 10
a 46 70 35
a 47 73 21
a 47 72 25
a 47 71 31
a 48 74 46
a 48 73 48
a 48 72 2
a 49 75 35
a 49 74 1
a 49 73 34
a 50 76 7
a 50 75 19
a 50 74 30
a 51 52 43
a 51 76 50
a 51 75 10
a 52 78 46
a 52 77 34
a 52 101 7
a 53 79 49
a 53 78 5
a 53 77 38
a 54 80 4
a 54 79 29
a 54 78 10
a 55 81 25
a 55 80 28
a 55 79 36
a 56 82 36
a 56 81 14
a 56 80 8
a 57 83 10
a 57 82 46
a 57 81 45
a 58 84 9
a 58 83 50
a 58 82 16
a 59 85 10
a 59 84 33
a 59 83 11
a 60 86 30
a 60 85 12
a 60 84 47
a 61 87 31
a 61 86 23
a 61 85 3
a 62 88 15
a 62 87 29
a 62 86 48
a 63 89 19
a 63 88 16
a 63 87 45
a 64 90 49
a 64 89 27
a 64 88 44
a 65 91 28
a 65 90 14
a 65 89 49
a 66 92 43
a 66 91 23
a 66 90 24
a 67 93 39
a 67 92 18
a 67 91 9
a 68 94 38
a 68 93 35
a 68 92 21
a 69 95 20
a 69 94 45
a 69 93 31
a 70 96 32
a 70 95 41
a 70 94 42
a 71 97 4
a 71 96 45
a 71 95 21
a 72 98 35
a 72 97 42
a 72 96 2
a 73 99 2
a 73 98 37
a 73 97 18
a 74 100 29
a 74 99 30
a 74 98 38
a 75 101 44
a 75 100 30
a 75 99 37
a 76 77 19
a 76 101 3
a 76 100 16
a 77 103 38
a 77 102 14
a 77 126 9
a 78 104 22
a 78 103 36
a 78 102 47
a 79 105 16
a 79 104 16
a 79 103 36
a 80 106 8
a 80 105 8
a 80 104 5
a 81 107 2
a 81 106 30
a 81 105 38
a 82 108 46
a 82 107 33
a 82 106 44
a 83 109 32
a 83 108 50
a 83 107 28
a 84 110 13
a 84 109 40
a 84 108 29
a 85 111 42
a 85 110 28
a 85 109 9
a 86 112 47
a 86 111 43
a 86 110 5
a 87 113 12
a 87 112 3
a 87 111 23
a 88 114 47
a 88 113 1
a 88 112 10
a 89 115 14
a 89 114 36
a 89 113 33
a 90 116 23
a 90 115 43
a 90 114 48
a 91 117 3
a 91 116 30
a 91 115 7
a 92 118 37
a 92 117 25
a 92 116 10
a 93 119 39
a 93 118 2
a 93 117 5
a 94 120 28
a 94 119 33
a 94 118 38
a 95 121 5
a 95 120 43
a 95 119 50
a 96 122 49
a 96 121 47
a 96 120 44
a 97 123 2
a 97 122 19
a 97 121 40
a 98 124 4
a 98 123 30
a 98 122 1
a 99 125 40
a 99 124 12
a 99 123 49
a 100 126 32
a 100 125 11
a 100 124 12
a 101 102 13
a 101 126 19
a 101 125 35
a 102 128 38
a 102 127 29
a 102 151 39
a 103 129 41
a 103 128 33
a 103 127 25
a 104 130 23
a 104 129 21
a 104 128 15
a 105 131 16
a 105 130 22
a 105 129 42
a 106 132 14
a 106 131 15
a 106 130 48
a 107 133 33
a 107 132 6
a 107 131 49
a 108 134 14
a 108 133 6
a 108 132 50
a 109 135 26
a 109 134 4
a 109 133 5
a 110 136 38
a 110 135 18
a 110 134 44
a 111 137 7
a 111 136 2
a 111 135 27
a 112 138 35
a 112 137 42
a 112 136 40
a 113 139 19
a 113 138 16
a 113 137 29
a 114 140 41
a 114 139 31
a 114 138 19
a 115 141 13
a 115 140 24
a 115 139 42
a 116 142 29
a 116 141 24
a 116 140 9
a 117 143 35
a 117 142 22
a 117 141 22
a 118 144 40
a 118 143 23
a 118 142 6
a 119 145 46
a 119 144 27
a 119 143 20
a 120 146 13
a 120 145 21
a 120 144 47
a 121 147 16
a 121 146 49
a 121 145 36
a 122 148 7
a 122 147 38
a 122 146 42
a 123 149 24
a 123 148 16
a 123 147 28
a 124 150 6
a 124 149 37
a 124 148 49
a 125 151 30
a 125 150 30
a 125 149 39
a 126 127 3
a 126 151 38
a 126 150 3
a 127 153 26
a 127 152 11
a 127 176 32
a 128 154 48
a 128 153 17
a 128 152 16
a 129 155 24
a 129 154 38
a 129 153 7
a 130 156 46
a 130 155 36
a 130 154 4
a 131 157 45
a 131 156 23
a 131 155 16
a 132 158 34
a 132 157 17
a 132 156 33
a 133 159 2
a 133 158 46
a 133 157 39
a 134 160 38
a 134 159 44
a 134 158 15
a 135 161 17
a 135 160 35
a 135 159 20
a 136 162 6
a 136 161 37
a 136 160 49
a 137 163 16
a 137 162 18
a 137 161 3
a 138 164 34
a 138 163 35
a 138 162 28
a 139 165 23
a 139 164 44
a 139 163 27
a 140 166 10
a 140 165 47
a 140 164 1
a 141 167 33
a 141 166 15
a 141 165 48
a 142 168 49
a 142 167 47
a 142 166 44
a 143 169 44
a 143 168 38
a 143 167 28
a 144 170 40
a 144 169 2
a 144 168 31
a 145 171 24
a 145 170 21
a 145 169 18
a 146 172 10
a 146 171 22
a 146 170 36
a 147 173 30
a 147 172 26
a 147 171 41
a 148 174 14
a 148 173 4
a 148 172 6
a 149 175 9
a 149 174 32
a 149 173 42
a 150 176 6
a 150 175 32
a 150 174 14
a 151 152 20
a 151 176 32
a 151 175 24
a 152 178 16
a 152 177 25
a 152 201 6
a 153 179 3
a 153 178 4
a 153 177 6
a 154 180 4
a 154 179 34
a 154 178 49
a 155 181 27
a 155 180 1
a 155 179 40
a 156 182 48
a 156 181 36
a 156 180 13
a 157 183 23
a 157 182 28
a 157 181 23
a 158 184 28
a 158 183 34
a 158 182 2
a 159 185 10
a 159 184 27
a 159 183 17
a 160 186 43
a 160 185 40
a 160 184 26
a 161 187 24
a 161 186 13
a 161 185 33
a 162 188 1
a 162 187 20
a 162 186 2
a 163 189 4
a 163 188 25
a 163 187 19
a 164 190 38
a 164 189 26
a 164 188 24
a 165 191 40
a 165 190 15
a 165 189 29
a 166 192 28
a 166 191 28
a 166 190 5
a 167 193 5
a 167 192 50
a 167 191 4
a 168 194 40
a 168 193 3
a 168 192 27
a 169 195 16
a 169 194 21
a 169 193 6
a 170 196 6
a 170 195 48
a 170 194 17
a 171 197 20
a 171 196 30
a 171 195 10
a 172 198 40
a 172 197 33
a 172 196 35
a 173 199 16
a 173 198 4
a 173 197 37
a 174 200 41
a 174 199 29
a 174 198 41
a 175 201 8
a 175 200 7
a 175 199 30
a 176 177 35
a 176 201 14
a 176 200 21
a 177 203 36
a 177 202 17
a 177 226 48
a 178 204 40
a 178 203 45
a 178 202 5
a 179 205 10
a 179 204 3
a 179 203 46
a 180 206 10
a 180 205 19
a 180 204 12
a 181 207 41
a 181 206 30
a 181 205 19
a 182 208 26
a 182 207 17
a 182 206 40
a 183 209 29
a 183 208 3
a 183 207 31
a 184 210 9
a 184 209 45
a 184 208 47
a 185 211 15
a 185 210 24
a 185 209 37
a 186 212 30
a 186 211 47
a 186 210 46
a 187 213 49
a 187 212 44
a 187 211 30
a 188 214 43
a 188 213 50
a 188 212 17
a 189 215 45
a 189 214 46
a 189 213 6
a 190 216 16
a 190 215 9
a 190 214 18
a 191 217 45
a 191 216 29
a 191 215 27
a 192 218 13
a 192 217 18
a 192 216 17
a 193 219 16
a 193 218 49
a 193 217 44
a 194 220 12
a 194 219 47
a 194 218 22
a 195 221 38
a 195 220 35
a 195 219 30
a 196 222 34
a 196 221 31
a 196 220 47
a 197 223 29
a 197 222 12
a 197 221 28
a 198 224 29
a 198 223 29
a 198 222 26
a 199 225 24
a 199 224 34
a 199 223 19
a 200 226 34
a 200 225 3
a 200 224 15
a 201 202 12
a 201 226 31
a 201 225 32
a 202 228 31
a 202 227 48
a 202 251 29
a 203 229 31
a 203 228 41
a 203 227 41
a 204 230 27
a 204 229 15
a 204 228 6
a 205 231 12
a 205 230 46
a 205 229 20
a 206 232 44
a 206 231 44
a 206 230 7
a 207 233 5
a 207 232 22
a 207 231 40
a 208 234 33
a 208 233 47
a 208 232 18
a 209 235 19
a 209 234 17
a 209 233 46
a 210 236 23
a 210 235 34
a 210 234 21
a 211 237 4
a 211 236 15
a 211 235 6
a 212 238 3
a 212 237 45
a 212 236 17
a 213 239 45
a 213 238 36
a 213 237 50
a 214 240 9
a 214 239 43
a 214 238 30
a 215 241 7
a 215 240 12
a 215 239 9
a 216 242 2
a 216 241 18
a 216 240 20
a 217 243 23
a 217 242 9
a 217 241 15
a 218 244 22
a 218 243 27
a 218 242 19
a 219 245 38
a 219 244 24
a 219 243 4
a 220 246 23
a 220 245 47
a 220 244 24
a 221 247 40
a 221 246 2
a 221 245 46
a 222 248 34
a 222 247 21
a 222 246 49
a 223 249 19
a 223 248 20
a 223 247 1
a 224 250 12
a 224 249 49
a 224 248 46
a 225 251 25
a 225 250 7
a 225 249 6
a 226 227 43
a 226 251 28
a 226 250 14
a 227 253 1
a 227 252 44
a 227 276 16
a 228 254 29
a 228 253 13
a 228 252 38
a 229 255 5
a 229 254 16
a 229 253 11
a 230 256 1
a 230 255 41
a 230 254 49
a 231 257 4
a 231 256 36
a 231 255 23
a 232 258 24
a 232 257 35
a 232 256 12
a 233 259 43
a 233 258 37
a 233 257 46
a 234 260 44
a 234 259 34
a 234 258 14
a 235 261 2
a 235 260 40
a 235 259 27
a 236 262 32
a 236 261 5
a 236 260 2
a 237 263 25
a 237 262 20
a 237 261 46
a 238 264 37
a 238 263 10
a 238 262 48
a 239 265 4
a 239 264 20
a 239 263 27
a 240 266 44
a 240 265 20
a 240 264 33
a 241 267 32
a 241 266 43
a 241 265 35
a 242 268 16
a 242 267 4
a 242 266 38
a 243 269 4
a 243 268 1
a 243 267 12
a 244 270 38
a 244 269 15
a 244 268 6
a 245 271 29
a 245 270 41
a 245 269 1
a 246 272 33
a 246 271 44
a 246 270 3
a 247 273 3
a 247 272 39
a 247 271 34
a 248 274 14
a 248 273 37
a 248 272 10
a 249 275 35
a 249 274 15
a 249 273 47
a 250 276 5
a 250 275 47
a 250 274 2
a 251 252 49
a 251 276 31
a 251 275 48
a 252 278 4
a 252 277 18
a 252 301 29
a 253 279 5
a 253 278 31
a 253 277 46
a 254 280 21
a 254 279 39
a 254 278 49
a 255 281 13
a 255 280 39
a 255 279 38
a 256 282 7
a 256 281 43
a 256 280 16
a 257 283 45
a 257 282 28
a 257 281 49
a 258 284 33
a 258 283 38
a 258 282 3
a 259 285 47
a 259 284 36
a 259 283 18
a 260 286 45
a 260 285 39
a 260 284 2
a 261 287 27
a 261 286 38
a 261 285 8
a 262 288 45
a 262 287 16
a 262 286 8
a 263 289 27
a 263 288 13
a 263 287 12
a 264 290 17
a 264 289 14
a 264 288 16
a 265 291 8
a 265 290 1
a 265 289 36
a 266 292 2
a 266 291 19
a 266 290 48
a 267 293 30
a 267 292 19
a 267 291 6
a 268 294 19
a 268 293 21
a 268 292 1
a 269 295 4
a 269 294 40
a 269 293 35
a 270 296 44
a 270 295 41
a 270 294 34
a 271 297 32
a 271 296 1
a 271 295 28
a 272 298 49
a 272 297 8
a 272 296 5
a 273 299 12
a 273 298 19
a 273 297 1
a 274 300 27
a 274 299 36
a 274 298 29
a 275 301 29
a 275 300 23
a 275 299 48
a 276 277 47
a 276 301 21
a 276 300 5
a 277 303 15
a 277 302 26
a 277 326 6
a 278 304 37
a 278 303 28
a 278 302 37
a 279 305 26
a 279 304 15
a 279 303 5
a 280 306 19
a 280 305 48
a 280 304 10
a 281 307 19
a 281 306 27
a 281 305 4
a 282 308 28
a 282 307 33
a 282 306 35
a 283 309 49
a 283 308 35
a 283 307 33
a 284 310 34
a 284 309 16
a 284 308 46
a 285 311 7
a 285 310 13
a 285 309 22
a 286 312 29
a 286 311 19
a 286 310 3
a 287 313 6
a 287 312 24
a 287 311 49
a 288 314 36
a 288 313 11
a 288 312 16
a 289 315 50
a 289 314 17
a 289 313 2
a 290 316 49
a 290 315 27
a 290 314 30
a 291 317 25
a 291 316 30
a 291 315 48
a 292 318 10
a 292 317 14
a 292 316 18
a 293 319 44
a 293 318 48
a 293 317 45
a 294 320 9
a 294 319 44
a 294 318 43
a 295 321 23
a 295 320 17
a 295 319 29
a 296 322 41
a 296 321 19
a 296 320 35
a 297 323 17
a 297 322 20
a 297 321 15
a 298 324 27
a 298 323 35
a 298 322 20
a 299 325 45
a 299 324 38
a 299 323 5
a 300 326 21
a 300 325 17
a 300 324 4
a 301 302 50
a 301 326 16
a 301 325 4
a 302 328 15
a 302 327 35
a 302 351 31
a 303 329 15
a 303 328 32
a 303 327 40
a 304 330 8
a 304 329 26
a 304 328 35
a 305 331 26
a 305 330 4
a 305 329 46
a 306 332 47
a 306 331 40
a 306 330 18
a 307 333 16
a 307 332 4
a 307 331 11
a 308 334 2
a 308 333 26
a 308 332 27
a 309 335 39
a 309 334 30
a 309 333 5
a 310 336 8
a 310 335 36
a 310 334 49
a 311 337 25
a 311 336 39
a 311 335 20
a 312 338 12
a 312 337 21
a 312 336 21
a 313 339 43
a 313 338 10
a 313 337 38
a 314 340 18
a 314 339 45
a 314 338 2
a 315 341 24
a 315 340 42
a 315 339 11
a 316 342 15
a 316 341 9
a 316 340 38
a 317 343 21
a 317 342 19
a 317 341 34
a 318 344 46
a 318 343 47
a 318 342 49
a 319 345 27
a 319 344 1
a 319 343 2
a 320 346 14
a 320 345 50
a 320 344 41
a 321 347 5
a 321 346 21
a 321 345 50
a 322 348 25
a 322 347 43
a 322 346 24
a 323 349 37
a 323 348 30
a 323 347 35
a 324 350 31
a 324 349 33
a 324 348 29
a 325 351 24
a 325 350 45
a 325 349 49
a 326 327 34
a 326 351 33
a 326 350 24
a 327 353 3
a 327 352 18
a 327 376 38
a 328 354 49
a 328 353 19
a 328 352 8
a 329 355 2
a 329 354 20
a 329 353 5
a 330 356 1
a 330 355 10
a 330 354 34
a 331 357 21
a 331 356 11
a 331 355 47
a 332 358 13
a 332 357 37
a 332 356 1
a 333 359 45
a 333 358 23
a 333 357 28
a 334 360 27
a 334 359 2
a 334 358 14
a 335 361 24
a 335 360 50
a 335 359 46
a 336 362 6
a 336 361 23
a 336 360 19
a 337 363 25
a 337 362 12
a 337 361 2
a 338 364 43
a 338 363 22
a 338 362 6
a 339 365 13
a 339 364 28
a 339 363 7
a 340 366 24
a 340 365 11
a 340 364 8
a 341 367 35
a 341 366 8
a 341 365 10
a 342 368 21
a 342 367 10
a 342 366 30
a 343 369 43
a 343 368 39
a 343 367 44
a 344 370 46
a 344 369 2
a 344 368 40
a 345 371 45
a 345 370 49
a 345 369 19
a 346 372 19
a 346 371 17
a 346 370 42
a 347 373 33
a 347 372 21
a 347 371 49
a 348 374 4
a 348 373 28
a 348 372 23
a 349 375 31
a 349 374 34
a 349 373 16
a 350 376 44
a 350 375 43
a 350 374 28
a 351 352 3
a 351 376 2
a 351 375 3
a 352 378 14
a 352 377 33
a 352 401 37
a 353 379 3
a 353 378 29
a 353 377 9
a 354 380 6
a 354 379 18
a 354 378 4
a 355 381 5
a 355 380 36
a 355 379 49
a 356 382 23
a 356 381 27
a 356 380 46
a 357 383 43
a 357 382 25
a 357 381 16
a 358 384 21
a 358 383 50
a 358 382 48
a 359 385 6
a 359 384 15
a 359 383 3
a 360 386 49
a 360 385 44
a 360 384 36
a 361 387 2
a 361 386 46
a 361 385 29
a 362 388 35
a 362 387 35
a 362 386 31
a 363 389 13
a 363 388 43
a 363 387 44
a 364 390 32
a 364 389 46
a 364 388 46
a 365 391 18
a 365 390 47
a 365 389 4
a 366 392 46
a 366 391 42
a 366 390 8
a 367 393 23
a 367 392 7
a 367 391 32
a 368 394 22
a 368 393 7
a 368 392 25
a 369 395 38
a 369 394 9
a 369 393 47
a 370 396 31
a 370 395 44
a 370 394 4
a 371 397 28
a 371 396 22
a 371 395 2
a 372 398 12
a 372 397 4
a 372 396 6
a 373 399 5
a 373 398 48
a 373 397 40
a 374 400 2
a 374 399 45
a 374 398 4
a 375 401 48
a 375 400 50
a 375 399 35
a 376 377 41
a 376 401 7
a 376 400 4
a 377 403 48
a 377 402 39
a 377 426 50
a 378 404 4
a 378 403 15
a 378 402 22
a 379 405 12
a 379 404 13
a 379 403 45
a 380 406 8
a 380 405 16
a 380 404 32
a 381 407 31
a 381 406 20
a 381 405 14
a 382 408 35
a 382 407 25
a 382 406 41
a 383 409 34
a 383 408 16
a 383 407 3
a 384 410 30
a 384 409 19
a 384 408 9
a 385 411 30
a 385 410 5
a 385 409 12
a 386 412 38
a 386 411 9
a 386 410 10
a 387 413 28
a 387 412 8
a 387 411 50
a 388 414 44
a 388 413 31
a 388 412 49
a 389 415 8
a 389 414 25
a 389 413 2
a 390 416 26
a 390 415 8
a 390 414 16
a 391 417 45
a 391 416 21
a 391 415 25
a 392 418 21
a 392 417 11
a 392 416 5
a 393 419 38
a 393 418 15
a 393 417 41
a 394 420 6
a 394 419 23
a 394 418 26
a 395 421 12
a 395 420 37
a 395 419 8
a 396 422 20
a 396 421 46
a 396 420 39
a 397 423 29
a 397 422 47
a 397 421 26
a 398 424 11
a 398 423 48
a 398 422 6
a 399 425 37
a 399 424 1
a 399 423 49
a 400 426 44
a 400 425 18
a 400 424 9
a 401 402 14
a 401 426 42
a 401 425 34
a 402 428 27
a 402 427 49
a 402 451 28
a 403 429 41
a 403 428 41
a 403 427 50
a 404 430 16
a 404 429 17
a 404 428 37
a 405 431 2
a 405 430 24
a 405 429 44
a 406 432 49
a 406 431 12
a 406 430 5
a 407 433 47
a 407 432 39
a 407 431 27
a 408 434 44
a 408 433 46
a 408 432 7
a 409 435 47
a 409 434 45
a 409 433 18
a 410 436 14
a 410 435 5
a 410 434 4
a 411 437 8
a 411 436 38
a 411 435 50
a 412 438 6
a 412 437 17
a 412 436 15
a 413 439 48
a 413 438 16
a 413 437 41
a 414 440 14
a 414 439 4
a 414 438 34
a 415 441 39
a 415 440 47
a 415 439 1
a 416 442 2
a 416 441 3
a 416 440 2
a 417 443 43
a 417 442 31
a 417 441 2
a 418 444 38
a 418 443 38
a 418 442 48
a 419 445 34
a 419 444 7
a 419 443 44
a 420 446 38
a 420 445 10
a 420 444 42
a 421 447 25
a 421 446 9
a 421 445 5
a 422 448 41
a 422 447 26
a 422 446 14
a 423 449 8
a 423 448 16
a 423 447 19
a 424 450 11
a 424 449 1
a 424 448 17
a 425 451 9
a 425 450 1
a 425 449 32
a 426 427 14
a 426 451 4
a 426 450 23
a 427 453 44
a 427 452 5
a 427 476 26
a 428 454 33
a 428 453 5
a 428 452 18
a 429 455 39
a 429 454 50
a 429 453 6
a 430 456 1
a 430 455 41
a 430 454 41
a 431 457 9
a 431 456 45
a 431 455 29
a 432 458 34
a 432 457 11
a 432 456 5
a 433 459 2
a 433 458 29
a 433 457 46
a 434 460 4
a 434 459 47
a 434 458 5
a 435 461 5
a 435 460 31
a 435 459 16
a 436 462 8
a 436 461 5
a 436 460 26
a 437 463 15
a 437 462 30
a 437 461 39
a 438 464 19
a 438 463 48
a 438 462 35
a 439 465 18
a 439 464 5
a 439 463 17
a 440 466 10
a 440 465 45
a 440 464 8
a 441 467 4
a 441 466 25
a 441 465 8
a 442 468 14
a 442 467 32
a 442 466 18
a 443 469 45
a 443 468 29
a 443 467 4
a 444 470 43
a 444 469 33
a 444 468 5
a 445 471 25
a 445 470 48
a 445 469 8
a 446 472 29
a 446 471 26
a 446 470 14
a 447 473 9
a 447 472 16
a 447 471 24
a 448 474 8
a 448 473 50
a 448 472 38
a 449 475 14
a 449 474 19
a 449 473 8
a 450 476 10
a 450 475 26
a 450 474 25
a 451 452 37
a 451 476 33
a 451 475 34
a 452 478 18
a 452 477 50
a 452 501 39
a 453 479 46
a 453 478 3
a 453 477 5
a 454 480 28
a 454 479 9
a 454 478 1
a 455 481 28
a 455 480 19
a 455 479 45
a 456 482 3
a 456 481 32
a 456 480 22
a 457 483 18
a 457 482 5
a 457 481 50
a 458 484 20
a 458 483 44
a 458 482 10
a 459 485 38
a 459 484 1
a 459 483 19
a 460 486 15
a 460 485 27
a 460 484 32
a 461 487 49
a 461 486 12
a 461 485 42
a 462 488 48
a 462 487 3
a 462 486 28
a 463 489 3
a 463 488 9
a 463 487 47
a 464 490 13
a 464 489 9
a 464 488 42
a 465 491 31
a 465 490 5
a 465 489 19
a 466 492 15
a 466 491 26
a 466 490 48
a 467 493 21
a 467 492 28
a 467 491 2
a 468 494 15
a 468 493 39
a 468 492 20
a 469 495 17
a 469 494 8
a 469 493 41
a 470 496 44
a 470 495 41
a 470 494 28
a 471 497 5
a 471 496 34
a 471 495 44
a 472 498 9
a 472 497 13
a 472 496 42
a 473 499 17
a 473 498 9
a 473 497 41
a 474 500 25
a 474 499 50
a 474 498 43
a 475 501 32
a 475 500 21
a 475 499 8
a 476 477 9
a 476 501 18
a 476 500 40
a 477 503 36
a 477 502 20
a 477 526 6
a 478 504 27
a 478 503 41
a 478 502 27
a 479 505 34
a 479 504 31
a 479 503 43
a 480 506 26
a 480 505 10
a 480 504 9
a 481 507 10
a 481 506 3
a 481 505 4
a 482 508 22
a 482 507 44
a 482 506 9
a 483 509 31
a 483 508 34
a 483 507 17
a 484 510 32
a 484 509 29
a 484 508 36
a 485 511 2
a 485 510 36
a 485 509 12
a 486 512 20
a 486 511 27
a 486 510 43
a 487 513 41
a 487 512 33
a 487 511 2
a 488 514 31
a 488 513 11
a 488 512 39
a 489 515 13
a 489 514 3
a 489 513 15
a 490 516 22
a 490 515 11
a 490 514 50
a 491 517 24
a 491 516 15
a 491 515 26
a 492 518 17
a 492 517 25
a 492 516 37
a 493 519 2
a 493 518 43
a 493 517 8
a 494 520 30
a 494 519 30
a 494 518 40
a 495 521 17
a 495 520 42
a 495 519 22
a 496 522 44
a 496 521 34
a 496 520 23
a 497 523 28
a 497 522 37
a 497 521 44
a 498 524 38
a 498 523 26
a 498 522 34
a 499 525 40
a 499 524 42
a 499 523 16
a 500 526 2
a 500 525 42
a 500 524 28
a 501 502 18
a 501 526 19
a 501 525 49
a 502 528 44
a 502 527 5
a 502 551 24
a 503 529 39
a 503 528 14
a 503 527 42
a 504 530 18
a 504 529 6
a 504 528 44
a 505 531 9
a 505 530 27
a 505 529 23
a 506 532 45
a 506 531 1
a 506 530 42
a 507 533 31
a 507 532 47
a 507 531 37
a 508 534 8
a 508 533 32
a 508 532 14
a 509 535 2
a 509 534 48
a 509 533 1
a 510 536 45
a 510 535 27
a 510 534 40
a 511 537 13
a 511 536 28
a 511 535 43
a 512 538 19
a 512 537 1
a 512 536 11
a 513 539 34
a 513 538 43
a 513 537 6
a 514 540 39
a 514 539 38
a 514 538 44
a 515 541 17
a 515 540 12
a 515 539 12
a 516 542 18
a 516 541 3
a 516 540 20
a 517 543 16
a 517 542 39
a 517 541 14
a 518 544 47
a 518 543 4
a 518 542 47
a 519 545 46
a 519 544 4
a 519 543 6
a 520 546 23
a 520 545 45
a 520 544 7
a 521 547 50
a 521 546 38
a 521 545 1
a 522 548 2
a 522 547 50
a 522 546 15
a 523 549 46
a 523 548 5
a 523 547 33
a 524 550 33
a 524 549 49
a 524 548 19
a 525 551 45
a 525 550 12
a 525 549 7
a 526 527 49
a 526 551 33
a 526 550 24
a 527 553 40
a 527 552 49
a 527 576 43
a 528 554 43
a 528 553 45
a 528 552 8
a 529 555 49
a 529 554 50
a 529 553 6
a 530 556 43
a 530 555 7
a 530 554 2
a 531 557 32
a 531 556 9
a 531 555 24
a 532 558 31
a 532 557 24
a 532 556 25
a 533 559 36
a 533 558 8
a 533 557 26
a 534 560 36
a 534 559 26
a 534 558 22
a 535 561 47
a 535 560 35
a 535 559 6
a 536 562 31
a 536 561 8
a 536 560 2
a 537 563 29
a 537 562 2
a 537 561 3
a 538 564 23
a 538 563 11
a 538 562 42
a 539 565 25
a 539 564 16
a 539 563 36
a 540 566 33
a 540 565 17
a 540 564 34
a 541 567 41
a 541 566 42
a 541 565 27
a 542 568 16
a 542 567 16
a 542 566 8
a 543 569 24
a 543 568 44
a 543 567 41
a 544 570 49
a 544 569 17
a 544 568 28
a 545 571 33
a 545 570 22
a 545 569 13
a 546 572 42
a 546 571 24
a 546 570 11
a 547 573 45
a 547 572 26
a 547 571 41
a 548 574 5
a 548 573 19
a 548 572 20
a 549 575 23
a 549 574 4
a 549 573 44
a 550 576 41
a 550 575 38
a 550 574 20
a 551 552 33
a 551 576 16
a 551 575 2
a 552 578 50
a 552 577 25
a 552 601 45
a 553 579 43
a 553 578 15
a 553 577 10
a 554 580 9
a 554 579 42
a 554 578 33
a 555 581 31
a 555 580 6
a 555 579 34
a 556 582 6
a 556 581 16
a 556 580 18
a 557 583 33
a 557 582 9
a 557 581 10
a 558 584 3
a 558 583 30
a 558 582 6
a 559 585 6
a 559 584 23
a 559 583 11
a 560 586 45
a 560 585 43
a 560 584 35
a 561 587 12
a 561 586 46
a 561 585 25
a 562 588 37
a 562 587 40
a 562 586 7
a 563 589 3
a 563 588 2
a 563 587 7
a 564 590 47
a 564 589 34
a 564 588 1
a 565 591 2
a 565 590 19
a 565 589 10
a 566 592 20
a 566 591 37
a 566 590 42
a 567 593 30
a 567 592 48
a 567 591 49
a 568 594 9
a 568 593 3
a 568 592 31
a 569 595 31
a 569 594 15
a 569 593 33
a 570 596 25
a 570 595 49
a 570 594 40
a 571 597 21
a 571 596 24
a 571 595 37
a 572 598 12
a 572 597 32
a 572 596 48
a 573 599 13
a 573 598 38
a 573 597 36
a 574 600 49
a 574 599 39
a 574 598 41
a 575 601 17
a 575 600 50
a 575 599 37
a 576 577 5
a 576 601 41
a 576 600 40
a 577 603 4
a 577 602 41
a 577 626 11
a 578 604 9
a 578 603 21
a 578 602 40
a 579 605 23
a 579 604 5
a 579 603 48
a 580 606 24
a 580 605 46
a 580 604 31
a 581 607 47
a 581 606 32
a 581 605 5
a 582 608 30
a 582 607 32
a 582 606 27
a 583 609 18
a 583 608 19
a 583 607 39
a 584 610 8
a 584 609 9
a 584 608 1
a 585 611 9
a 585 610 45
a 585 609 1
a 586 612 1
a 586 611 37
a 586 610 18
a 587 613 41
a 587 612 47
a 587 611 24
a 588 614 13
a 588 613 37
a 588 612 28
a 589 615 19
a 589 614 36
a 589 613 36
a 590 616 14
a 590 615 16
a 590 614 10
a 591 617 48
a 591 616 23
a 591 615 33
a 592 618 29
a 592 617 1
a 592 616 31
a 593 619 47
a 593 618 39
a 593 617 11
a 594 620 6
a 594 619 42
a 594 618 30
a 595 621 2
a 595 620 44
a 595 619 39
a 596 622 40
a 596 621 11
a 596 620 47
a 597 623 37
a 597 622 37
a 597 621 47
a 598 624 25
a 598 623 16
a 598 622 39
a 599 625 10
a 599 624 3
a 599 623 1
a 600 626 26
a 600 625 12
a 600 624 19
a 601 602 50
a 601 626 47
a 601 625 32
a 602 627 150
a 603 627 150
a 604 627 150
a 605 627 150
a 606 627 150
a 607 627 150
a 608 627 150
a 609 627 150
a 610 627 150
a 611 627 150
a 612 627 150
a 613 627 150
a 614 627 150
a 615 627 150
a 616 627 150
a 617 627 150
a 618 627 150
a 619 627 150
a 620 627 150
a 621 627 150
a 622 627 150
a 623 627 150
a 624 627 150
a 625 627 150
a 626 627 150
